(set-logic HORN)
(set-info :source |
    Benchmark: C_VC
    Output by Princess (http://www.philipp.ruemmer.org/princess.shtml)
|)
(set-info :status sat)
(declare-fun inv_main13 (Int Int Int) Bool)
(declare-fun inv_main17 (Int Int Int) Bool)
(declare-fun inv_main5 (Int Int Int) Bool)
(assert (inv_main5 6 6 6))
(assert (forall ((var0 Int) (var1 Int) (var2 Int)) (or (not (and (inv_main13 var2 var1 var0) (and (and (or (or (not (= (+ var2 1) 6)) (not (= (+ var1 1) 6))) (not (= var0 6))) (not (<= 0 (+ (+ 6 (* (- 1) (+ var2 1))) (- 1))))) (and (not (<= 0 (+ (+ 6 (* (- 1) (+ var1 1))) (- 1)))) (not (<= 0 (+ (+ 6 (* (- 1) var0)) (- 1)))))))) (inv_main17 (+ var2 1) (+ var1 1) var0))))
(assert (forall ((var0 Int) (var1 Int) (var2 Int)) (or (not (and (inv_main13 var2 var1 var0) (<= 0 (+ (+ 6 (* (- 1) var0)) (- 1))))) (inv_main13 var2 var1 (+ var0 1)))))
(assert (forall ((var0 Int) (var1 Int) (var2 Int)) (or (not (and (inv_main13 var2 var1 var0) (and (<= 0 (+ (+ 6 (* (- 1) (+ var1 1))) (- 1))) (not (<= 0 (+ (+ 6 (* (- 1) var0)) (- 1))))))) (inv_main13 var2 (+ var1 1) 0))))
(assert (forall ((var0 Int) (var1 Int) (var2 Int)) (or (not (inv_main5 var2 var1 var0)) (inv_main13 0 0 0))))
(assert (forall ((var0 Int) (var1 Int) (var2 Int)) (or (not (and (inv_main13 var2 var1 var0) (and (<= 0 (+ (+ 6 (* (- 1) (+ var2 1))) (- 1))) (and (not (<= 0 (+ (+ 6 (* (- 1) (+ var1 1))) (- 1)))) (not (<= 0 (+ (+ 6 (* (- 1) var0)) (- 1)))))))) (inv_main13 (+ var2 1) 0 0))))
(assert (forall ((var0 Int) (var1 Int) (var2 Int)) (not (inv_main17 var2 var1 var0))))
(check-sat)
